1422
1   1   40   20   0 12 4 0
1   2   170  54   0 3 11 19 27 35 37 29 21 13 5 0
1   3   188  57   0 8 16 24 32 40 75 67 39 31 23 15 7 0
1   4   100  27   0 18 26 34 10 2 0
1   5   212  58   0 6 14 22 20 28 36 33 25 17 9 1 0
2   1   206  58   0 43 51 59 77 69 61 79 71 63 55 47 0
2   2   188  57   0 41 49 57 65 73 38 30 74 66 58 50 42 0
2   3   170  54   0 46 54 62 70 78 76 68 60 52 44 0
2   4   148  47   0 45 53 72 80 64 56 48 0
2   5   0    0    0 0